c smth
s vc 200 143
199
198
197
196
195
193
192
191
190
189
186
184
183
181
180
178
177
174
172
171
170
164
161
160
158
156
155
154
153
151
150
149
148
147
146
145
144
143
142
141
140
138
137
136
133
132
131
128
127
123
122
120
118
117
115
114
113
112
111
109
108
107
106
105
103
102
101
100
99
98
96
94
93
92
91
90
89
88
86
85
82
81
80
79
78
77
76
75
72
71
69
68
67
66
64
63
62
61
60
59
57
56
55
54
53
52
51
50
49
48
47
46
45
44
43
42
41
39
38
37
36
35
34
32
31
30
29
27
26
23
22
19
18
17
15
13
12
10
8
6
5
3
1